NAME : Save_1
TYPE : TSP
DIMENSION : 25
EDGE_WEIGHT_TYPE : EUC_2D
NODE_COORD_SECTION
1 10 560
2 13 206
3 19 470
4 38 361
5 41 131
6 43 51
7 106 134
8 110 331
9 113 240
10 135 257
11 153 457
12 257 248
13 273 307
14 280 209
15 334 221
16 340 398
17 353 364
18 391 241
19 395 511
20 433 514
21 474 495
22 477 276
23 521 282
24 521 195
25 545 521
EOF
